GLPSOL: GLPK LP/MIP Solver, v4.65
Parameter(s) specified in the command line:
 --cpxlp /tmp/50c166118d1a4fcaa7fb5b79e852beee-pulp.lp -o /tmp/50c166118d1a4fcaa7fb5b79e852beee-pulp.sol
 --tmlim 15
Reading problem data from '/tmp/50c166118d1a4fcaa7fb5b79e852beee-pulp.lp'...
24554 rows, 7200 columns, 66185 non-zeros
35398 lines were read
GLPK Simplex Optimizer, v4.65
24554 rows, 7200 columns, 66185 non-zeros
Preprocessing...
4303 rows, 2359 columns, 13351 non-zeros
Scaling...
 A: min|aij| =  5.000e-01  max|aij| =  5.000e+00  ratio =  1.000e+01
Problem data seem to be well scaled
Constructing initial basis...
Size of triangular part is 4284
      0: obj =   1.000000000e+01 inf =   8.015e+02 (269)
    835: obj =   1.300000000e+01 inf =   6.463e-14 (0) 5
*   882: obj =   1.600000000e+01 inf =   3.331e-16 (0) 1
OPTIMAL LP SOLUTION FOUND
Time used:   0.1 secs
Memory used: 17.1 Mb (17971640 bytes)
Writing basic solution to '/tmp/50c166118d1a4fcaa7fb5b79e852beee-pulp.sol'...
GLPSOL: GLPK LP/MIP Solver, v4.65
Parameter(s) specified in the command line:
 --cpxlp /tmp/77ca9320daf645bea50cc36a991bf592-pulp.lp -o /tmp/77ca9320daf645bea50cc36a991bf592-pulp.sol
 --tmlim 15
Reading problem data from '/tmp/77ca9320daf645bea50cc36a991bf592-pulp.lp'...
24554 rows, 7200 columns, 66185 non-zeros
7200 integer variables, all of which are binary
35398 lines were read
GLPK Integer Optimizer, v4.65
24554 rows, 7200 columns, 66185 non-zeros
7200 integer variables, all of which are binary
Preprocessing...
1248 hidden packing inequaliti(es) were detected
8 hidden covering inequaliti(es) were detected
4303 rows, 2359 columns, 13351 non-zeros
2359 integer variables, all of which are binary
Scaling...
 A: min|aij| =  5.000e-01  max|aij| =  5.000e+00  ratio =  1.000e+01
Problem data seem to be well scaled
Constructing initial basis...
Size of triangular part is 4284
Solving LP relaxation...
GLPK Simplex Optimizer, v4.65
4303 rows, 2359 columns, 13351 non-zeros
      0: obj =   1.000000000e+01 inf =   8.015e+02 (269)
    835: obj =   1.300000000e+01 inf =   6.152e-14 (0) 5
*   882: obj =   1.600000000e+01 inf =   6.384e-16 (0) 1
OPTIMAL LP SOLUTION FOUND
Integer optimization begins...
Long-step dual simplex will be used
+   882: mip =     not found yet <=              +inf        (1; 0)
+  3036: >>>>>   1.600000000e+01 <=   1.600000000e+01   0.0% (53; 24)
+  3036: mip =   1.600000000e+01 <=     tree is empty   0.0% (0; 147)
INTEGER OPTIMAL SOLUTION FOUND
Time used:   1.2 secs
Memory used: 16.2 Mb (17007800 bytes)
Writing MIP solution to '/tmp/77ca9320daf645bea50cc36a991bf592-pulp.sol'...
